KPOINTS for SCF (Uniform Grid)
0
Gamma
8  2  2
0  0  0
