BeN4CONTCAR\(0\-1\0)\(3)                
   1.00000000000000     
     3.6580454630212178    0.0000000000000000    0.0000000000000000
     0.0000000000000000   20.2721670995519681    0.0000000000000000
     0.0000000000000000    0.0000000000000000   22.4025846306036023
   N    Be   Be   Be
     8     1     1     1
Direct
  0.3185134577215661  0.5000000000000000  0.1118186492182449
  0.3185118815009407  0.5000000000000000  0.2279867270380918
  0.6814865422784341  0.5000000000000000  0.1118186492182449
  0.6814881184990591  0.5000000000000000  0.2279867270380918
  0.1857685240687863  0.5000000000000000  0.0553679866164782
  0.1857681792916479  0.5000000000000000  0.2844370103431116
  0.8142314609312160  0.5000000000000000  0.0553679866164782
  0.8142318057083545  0.5000000000000000  0.2844370103431116
  0.0000000000000000  0.5000000000000000  0.1699032004777080
  0.5000000000000000  0.5000000000000000  0.3347582789065326
  0.5000000000000000  0.5000000000000000  0.0050478081839008
 
  0.00000000E+00  0.00000000E+00  0.00000000E+00
  0.00000000E+00  0.00000000E+00  0.00000000E+00
  0.00000000E+00  0.00000000E+00  0.00000000E+00
  0.00000000E+00  0.00000000E+00  0.00000000E+00
  0.00000000E+00  0.00000000E+00  0.00000000E+00
  0.00000000E+00  0.00000000E+00  0.00000000E+00
  0.00000000E+00  0.00000000E+00  0.00000000E+00
  0.00000000E+00  0.00000000E+00  0.00000000E+00
  0.00000000E+00  0.00000000E+00  0.00000000E+00
  0.00000000E+00  0.00000000E+00  0.00000000E+00
  0.00000000E+00  0.00000000E+00  0.00000000E+00
