Mo  S Se  W                             
   1.00000000000000     
     3.1850000000000001    0.0000000000000000    0.0000000000000000
    -1.5925000000000000    2.7582909999999998    0.0000000000000000
     0.0000000000000000    0.0000000000000000   35.0000000000000000
   Mo   S    Se   W 
     2     4     2     1
Direct
  0.6421797300000023  0.3611016300000003  0.2038179500000012
  0.6729575999999966  0.3233529600000011  0.8090528099999972
  0.9755039699999983  0.0277684100000002  0.1634753499999988
  0.9755117200000001  0.0277832000000018  0.2439599499999971
  0.6760277599999966  0.3256265999999997  0.4005163300000021
  0.6760499000000024  0.3256090699999987  0.4839290800000029
  0.0062924499999966  0.9900234400000016  0.7645278199999979
  0.0062933500000000  0.9900134399999985  0.8534419300000025
  0.0093642900000006  0.9922937600000026  0.4422702600000008
 
  0.00000000E+00  0.00000000E+00  0.00000000E+00
  0.00000000E+00  0.00000000E+00  0.00000000E+00
  0.00000000E+00  0.00000000E+00  0.00000000E+00
  0.00000000E+00  0.00000000E+00  0.00000000E+00
  0.00000000E+00  0.00000000E+00  0.00000000E+00
  0.00000000E+00  0.00000000E+00  0.00000000E+00
  0.00000000E+00  0.00000000E+00  0.00000000E+00
  0.00000000E+00  0.00000000E+00  0.00000000E+00
  0.00000000E+00  0.00000000E+00  0.00000000E+00
